sat
(:max-memory        20.16
 :memory            17.85
 :num-allocs        1117272247
 :rlimit-count      2449596
 :sls-constraints   7935
 :sls-ddfw-flips    5193753.00
 :sls-ddfw-reinits  32
 :sls-ddfw-restarts 1312
 :sls-ddfw-shifts   1496052.00
 :sls.euf-conflict  7935
 :time              6.64
 :total-time        6.64)
